NAME : n100w140.003.844.tour
COMMENT : Length = 844
COMMENT : Found by LKH [Keld Helsgaun] Tue Nov  7 19:45:14 2017
TYPE : TOUR
DIMENSION : 101
TOUR_SECTION
1
87
23
62
7
34
18
5
64
76
39
81
75
52
72
54
86
36
16
95
71
88
29
89
14
44
26
3
80
31
21
97
30
93
6
47
59
19
49
60
42
96
24
84
22
35
82
46
25
98
38
2
33
69
58
70
78
20
43
94
77
56
53
61
27
85
74
32
9
45
12
51
73
65
13
50
99
17
101
37
10
57
92
15
68
4
8
63
79
66
91
90
55
11
40
41
83
100
48
67
28
-1
EOF
